RAW/CMTT/fspd-mid/CMT11T.vrp_seed-8.out
998.8202994	73.334	113.444
